259469	12
259206	12
259366	12
259350	12
264513	12
262016	12
261017	12
263615	12
261272	12
260394	12
260110	12
263911	12
263020	12
265091	12
262191	12
266599	12
262694	12
260616	12
265400	12
265761	12
269590	12
272897	12
273006	12
273027	12
273120	12
273217	12
272879	12
275207	12
274440	12
273436	12
274037	12
273476	12
274081	12
274778	12
274253	12
275717	12
277124	12
273023	12
273088	12
273069	12
260970	12
259565	12
259376	12
259205	12
259242	12
259393	12
259196	12
259167	12
259221	12
259269	12
